comp/2018/General_Track/CrCi/CrCy_10-sbox2-D5-sIn17.sl

(set-logic BV)


(define-fun origCir ( (LN7 Bool) (LN34 Bool) (LN213 Bool) (LN214 Bool)  )  Bool    
          (xor (xor (and (and  LN7 LN34 )(and  LN7 LN34 ) ) LN214 ) LN213 )
)


(synth-fun skel ( (LN7 Bool) (LN34 Bool) (LN213 Bool) (LN214 Bool)  )  Bool    
          ((Start Bool (
		                                  (and depth1 depth1)
		                                  (not depth1)
		                                  (or depth1 depth1)
		                                  (xor depth1 depth1)
          ))
          (depth1 Bool (
		                                  (and depth2 depth2)
		                                  (not depth2)
		                                  (or depth2 depth2)
		                                  (xor depth2 depth2)
		                                  LN213
          ))
          (depth2 Bool (
		                                  (and depth3 depth3)
		                                  (not depth3)
		                                  (or depth3 depth3)
		                                  (xor depth3 depth3)
		                                  LN214
          ))
          (depth3 Bool (
		                                  (and depth4 depth4)
		                                  (not depth4)
		                                  (or depth4 depth4)
		                                  (xor depth4 depth4)
		                                  LN34
          ))
          (depth4 Bool (
		                                  LN7
          )))
)


(declare-var LN7 Bool)
(declare-var LN34 Bool)
(declare-var LN213 Bool)
(declare-var LN214 Bool)

(constraint (= (origCir LN7 LN34 LN213 LN214 ) (skel LN7 LN34 LN213 LN214 )))


(check-synth)

